Log file: C:\Users\user\robust_bilevel_network_games\true_dro\S20_beta0p3_wmax\log_abilene_S20_20260418_030015007_wmax.txt
Started: 2026-04-18T03:00:15.007

======================================================================
============================================================
ABILENE Network Summary
============================================================
Number of nodes: 12
Number of arcs (incl. dummy): 31
Number of regular arcs: 30
Number of interdictable arcs: 22
Source node: s (STTLng)
Sink node: t (NYCMng)
Node-incidence matrix N dimensions: (11, 31)

Sparsity Information:
  Arc-arc adjacency: 268 / 900 pairs (70.2% sparse)
  Node-arc incidence: 56 / 330 pairs (83.0% sparse)

First 15 arcs:
  Arc 1: ("ATLAM5", "ATLAng") [Interdictable: ✓]
  Arc 2: ("ATLAng", "ATLAM5") [Interdictable: ✓]
  Arc 3: ("ATLAng", "HSTNng") [Interdictable: ✓]
  Arc 4: ("ATLAng", "IPLSng") [Interdictable: ✓]
  Arc 5: ("ATLAng", "WASHng") [Interdictable: ✓]
  Arc 6: ("CHINng", "IPLSng") [Interdictable: ✓]
  Arc 7: ("CHINng", "t") [Interdictable: ✗]
  Arc 8: ("DNVRng", "KSCYng") [Interdictable: ✓]
  Arc 9: ("DNVRng", "SNVAng") [Interdictable: ✓]
  Arc 10: ("DNVRng", "s") [Interdictable: ✗]
  Arc 11: ("HSTNng", "ATLAng") [Interdictable: ✓]
  Arc 12: ("HSTNng", "KSCYng") [Interdictable: ✓]
  Arc 13: ("HSTNng", "LOSAng") [Interdictable: ✓]
  Arc 14: ("IPLSng", "ATLAng") [Interdictable: ✓]
  Arc 15: ("IPLSng", "CHINng") [Interdictable: ✓]
============================================================
  |A|=30, S=20, γ=2, w=25.6333 (=max cap), λU=2.0
  ε̂=0.67, ε̃=0.67
INSTANCE: abilene (S=20, β=0.3, γ=2, w=25.6333, ε̂=0.67, ε̃=0.67)
  Settings: MW cuts, mincut VI, inexact=false, mini-benders, w=max(cap)
======================================================================

----------------------------------------
VI-only OMP diagnostic (no Benders cuts)
Set parameter Username
Set parameter LicenseID to value 2742039
Academic license - for non-commercial use only - expires 2026-11-20
Set parameter OutputFlag to value 1
Set parameter OutputFlag to value 1
Gurobi Optimizer version 13.0.0 build v13.0.0rc1 (win64 - Windows 10.0 (19045.2))

CPU model: AMD Ryzen 9 5900X 12-Core Processor, instruction set [SSE2|AVX|AVX2]
Thread count: 12 physical cores, 24 logical processors, using up to 24 threads

Optimize a model with 2430 rows, 1451 columns and 7019 nonzeros (Min)
Model fingerprint: 0x1eba5213
Model has 1 linear objective coefficients
Variable types: 1421 continuous, 30 integer (30 binary)
Coefficient statistics:
  Matrix range     [1e-02, 1e+00]
  Objective range  [1e+00, 1e+00]
  Bounds range     [1e+00, 1e+04]
  RHS range        [1e+00, 2e+00]
Found heuristic solution: objective 32.5372879
Presolve removed 1349 rows and 553 columns
Presolve time: 0.01s
Presolved: 1081 rows, 898 columns, 2518 nonzeros
Found heuristic solution: objective 32.5372880
Variable types: 880 continuous, 18 integer (18 binary)

Root relaxation: objective 3.552714e-15, 204 iterations, 0.00 seconds (0.00 work units)

    Nodes    |    Current Node    |     Objective Bounds      |     Work
 Expl Unexpl |  Obj  Depth IntInf | Incumbent    BestBd   Gap | It/Node Time

*    0     0               0      -0.0000000   -0.00000  0.00%     -    0s

Explored 1 nodes (204 simplex iterations) in 0.01 seconds (0.01 work units)
Thread count was 24 (of 24 available processors)

Solution count 2: -1.05471e-15 32.5373 

Optimal solution found (tolerance 1.00e-04)
Best objective -1.845745778439e-15, best bound -1.845745778439e-15, gap 0.0000%

User-callback calls 40, time in user-callback 0.00 sec
  VI-only LB = -0.000000, x = [0, 0, 0, 0, 1, 0, 0, 0, 0, 0, 0, 0, 0, 0, 1, 0, 0, 0, 0, 0, 0, 0, 0, 0, 0, 0, 0, 0, 0, 0]
----------------------------------------

======================================================================
True-DRO Benders
======================================================================
Set parameter Username
Set parameter LicenseID to value 2742039
Academic license - for non-commercial use only - expires 2026-11-20
Set parameter Username
Set parameter LicenseID to value 2742039
Academic license - for non-commercial use only - expires 2026-11-20
Set parameter Username
Set parameter LicenseID to value 2742039
Academic license - for non-commercial use only - expires 2026-11-20
Set parameter Username
Set parameter LicenseID to value 2742039
Academic license - for non-commercial use only - expires 2026-11-20
Set parameter Username
Set parameter LicenseID to value 2742039
Academic license - for non-commercial use only - expires 2026-11-20
Set parameter Username
Set parameter LicenseID to value 2742039
Academic license - for non-commercial use only - expires 2026-11-20

=== True-DRO Benders iter 1 ===
  OMP: t₀=-0.000000, UB=Inf, gap=NaN, x=[0, 0, 0, 0, 1, 0, 0, 0, 0, 0, 0, 0, 0, 0, 1, 0, 0, 0, 0, 0, 0, 0, 0, 0, 0, 0, 0, 0, 0, 0] (0.015s)
  Sub: Z₀=21.381708 [LOCAL], α=[0.000,0.000,0.000,0.000,10.208,0.000,0.000,1.558,0.000,0.000,0.000,0.000,0.000,0.000,12.900,0.000,0.000,0.000,0.000,0.967,0.000,0.000,0.000,0.000,0.000,0.000,0.000,0.000,0.000,0.000]
  Iter 1: LB=-0.000000  UB=Inf  gap=NaN
  Cut: intercept=-578.946994, π_x_range=[-421.5332, 303.8762]
  Mini-Benders[1] (mw): LB=0.000000, Z₀(α*)=-18.406763, intercept=6.512862
  Mini-Benders[2] (mw): LB=0.000000, Z₀(α*)=-18.406763, intercept=6.512862
  Mini-Benders[3]: LB stagnated, break
  α-step: Z₀=11.453547, α=[0.000,0.000,0.000,0.000,0.176,0.000,0.000,5.670,0.000,0.000,4.583,0.000,0.000,0.000,5.428,0.000,0.000,0.000,9.776,0.000,0.000,0.000,0.000,0.000,0.000,0.000,0.000,0.000,0.000,0.000]
  Alt-Benders[1] (mw): LB=-0.000000, Z₀(α*)=-1.818386, intercept=19.134122
  Alt-Benders[2] (mw): LB=-0.000000, Z₀(α*)=-1.818386, intercept=19.134122
  Alt-Benders[3]: LB stagnated, break
  OMP re-solve: 0.000s

=== True-DRO Benders iter 2 ===
  OMP: t₀=-0.000000, UB=Inf, gap=NaN, x=[0, 0, 0, 0, 0, 0, 0, 1, 0, 0, 0, 0, 0, 0, 0, 0, 0, 0, 0, 0, 0, 0, 1, 0, 0, 0, 0, 0, 0, 0] (0.000s)
  Sub: Z₀=21.995610 [LOCAL], α=[0.000,0.000,0.000,0.000,0.035,0.000,0.000,18.602,0.000,0.000,0.000,0.000,0.000,0.000,1.745,0.000,0.000,0.000,0.000,0.000,0.000,0.000,5.251,0.000,0.000,0.000,0.000,0.000,0.000,0.000]
  Iter 2: LB=-0.000000  UB=Inf  gap=NaN
  Cut: intercept=-569.193434, π_x_range=[-421.5126, 296.6450]
  Mini-Benders[1] (mw): LB=0.000000, Z₀(α*)=14.324087, intercept=10.476668
  Mini-Benders[2] (mw): LB=2.003208, Z₀(α*)=-6.762947, intercept=5.963249
  Mini-Benders[3] (mw): LB=2.003208, Z₀(α*)=-6.762947, intercept=5.963249
  Mini-Benders[4] (mw): LB=2.003208, Z₀(α*)=-6.762947, intercept=5.963249
  Mini-Benders[5]: LB stagnated, break
  α-step: Z₀=14.930696, α=[0.000,0.000,0.000,0.000,2.585,0.000,0.000,9.364,0.000,0.000,0.000,0.000,0.000,0.000,7.312,0.000,0.000,0.000,6.372,0.000,0.000,0.000,0.000,0.000,0.000,0.000,0.000,0.000,0.000,0.000]
  Alt-Benders[1] (mw): LB=2.156246, Z₀(α*)=13.096656, intercept=12.847242
  Alt-Benders[2] (mw): LB=2.163630, Z₀(α*)=13.601911, intercept=21.648498
  Alt-Benders[3] (mw): LB=4.606648, Z₀(α*)=13.242219, intercept=21.965189
  Alt-Benders[4] (mw): LB=7.767292, Z₀(α*)=8.246799, intercept=25.759707
  Alt-Benders[5] (mw): LB=8.214363, Z₀(α*)=14.090366, intercept=24.344710
  OMP re-solve: 0.058s

=== True-DRO Benders iter 3 ===
  OMP: t₀=8.241349, UB=Inf, gap=NaN, x=[0, 0, 0, 0, 0, 0, 0, 1, 0, 0, 0, 0, 0, 0, 0, 0, 0, 0, 1, 0, 0, 0, 0, 0, 0, 0, 0, 0, 0, 0] (0.000s)
  Sub: Z₀=21.053482 [TIME_LIMIT], α=[0.000,0.000,0.000,0.000,0.000,0.000,0.000,7.877,0.000,0.000,7.471,0.000,0.000,0.000,0.000,0.000,0.000,0.000,1.562,8.724,0.000,0.000,0.000,0.000,0.000,0.000,0.000,0.000,0.000,0.000]
  Iter 3: LB=8.241349  UB=21.065299  gap=6.09e-01
  Cut: intercept=-4.070556, π_x_range=[-211.9234, 14.4145]
  Mini-Benders[1] (mw): LB=8.246797, Z₀(α*)=1.299132, intercept=2.429410
  Mini-Benders[2] (mw): LB=8.246797, Z₀(α*)=1.299132, intercept=2.429410
  Mini-Benders[3] (mw): LB=8.246797, Z₀(α*)=1.299132, intercept=2.429410
  Mini-Benders[4]: LB stagnated, break
  α-step: Z₀=20.995220, α=[0.000,0.000,0.000,0.000,0.000,0.000,0.000,4.225,0.000,0.000,7.108,0.000,0.000,0.000,10.044,0.000,0.000,0.000,2.313,1.943,0.000,0.000,0.000,0.000,0.000,0.000,0.000,0.000,0.000,0.000]
  Alt-Benders[1] (mw): LB=8.599264, Z₀(α*)=-1.299416, intercept=15.063637
  Alt-Benders[2] (mw): LB=8.599264, Z₀(α*)=-1.299416, intercept=15.063637
  Alt-Benders[3] (mw): LB=8.599264, Z₀(α*)=-1.299416, intercept=15.063637
  Alt-Benders[4]: LB stagnated, break
  OMP re-solve: 0.000s

=== True-DRO Benders iter 4 ===
  OMP: t₀=8.599264, UB=21.065299, gap=5.92e-01, x=[0, 0, 0, 0, 0, 0, 0, 0, 0, 0, 0, 0, 0, 0, 0, 0, 0, 1, 1, 0, 0, 0, 0, 0, 0, 0, 0, 0, 0, 0] (0.000s)
  Sub: Z₀=25.315562 [LOCAL], α=[0.000,0.000,0.000,0.000,0.360,0.000,0.000,0.000,0.000,0.000,0.000,0.000,0.000,0.000,4.451,0.000,0.000,0.000,13.905,6.918,0.000,0.000,0.000,0.000,0.000,0.000,0.000,0.000,0.000,0.000]
  Iter 4: LB=8.599264  UB=21.065299  gap=5.92e-01
  Cut: intercept=-566.860548, π_x_range=[-422.6795, 300.5651]
  Mini-Benders[1] (mw): LB=9.491625, Z₀(α*)=0.398295, intercept=4.983056
  Mini-Benders[2] (mw): LB=9.491625, Z₀(α*)=0.398295, intercept=4.983056
  Mini-Benders[3] (mw): LB=9.491625, Z₀(α*)=0.398295, intercept=4.983056
  Mini-Benders[4]: LB stagnated, break
  α-step: Z₀=22.341945, α=[0.000,0.000,0.000,0.000,0.000,0.000,0.000,16.220,0.000,0.000,1.693,0.000,0.000,0.000,7.110,0.000,0.000,0.000,0.000,0.611,0.000,0.000,0.000,0.000,0.000,0.000,0.000,0.000,0.000,0.000]
  Alt-Benders[1] (mw): LB=10.362370, Z₀(α*)=-2.553899, intercept=16.701985
  Alt-Benders[2] (mw): LB=10.362370, Z₀(α*)=-2.553899, intercept=16.701985
  Alt-Benders[3] (mw): LB=10.362370, Z₀(α*)=-2.553899, intercept=16.701985
  Alt-Benders[4]: LB stagnated, break
  OMP re-solve: 0.000s

=== True-DRO Benders iter 5 ===
  OMP: t₀=10.362370, UB=21.065299, gap=5.08e-01, x=[0, 0, 0, 0, 0, 0, 0, 0, 0, 0, 0, 0, 0, 0, 0, 0, 0, 0, 1, 1, 0, 0, 0, 0, 0, 0, 0, 0, 0, 0] (0.000s)
  Sub: Z₀=23.446285 [LOCAL], α=[0.000,0.000,0.000,0.000,0.025,0.000,0.000,5.876,0.000,0.000,0.530,0.000,0.000,0.000,4.502,0.000,0.000,0.000,10.951,3.749,0.000,0.000,0.000,0.000,0.000,0.000,0.000,0.000,0.000,0.000]
  Iter 5: LB=10.362370  UB=21.065299  gap=5.08e-01
  Cut: intercept=-572.968513, π_x_range=[-421.4475, 304.3845]
  Mini-Benders[1] (mw): LB=11.289747, Z₀(α*)=0.752363, intercept=15.271702
  Mini-Benders[2] (mw): LB=11.289747, Z₀(α*)=0.752363, intercept=15.271702
  Mini-Benders[3] (mw): LB=11.289747, Z₀(α*)=0.752363, intercept=15.271702
  Mini-Benders[4]: LB stagnated, break
  α-step: Z₀=15.384287, α=[0.000,0.000,0.000,0.000,4.137,0.000,0.000,6.830,0.000,0.000,0.000,0.000,0.000,0.000,6.908,0.000,0.000,0.000,6.835,0.924,0.000,0.000,0.000,0.000,0.000,0.000,0.000,0.000,0.000,0.000]
  Alt-Benders[1] (mw): LB=11.289747, Z₀(α*)=15.663943, intercept=14.094032
  Alt-Benders[2] (mw): LB=11.453547, Z₀(α*)=2.099391, intercept=25.192148
  Alt-Benders[3] (mw): LB=11.453547, Z₀(α*)=2.099391, intercept=25.192148
  Alt-Benders[4] (mw): LB=11.453547, Z₀(α*)=2.099391, intercept=25.192148
  Alt-Benders[5]: LB stagnated, break
  OMP re-solve: 0.000s

=== True-DRO Benders iter 6 ===
  OMP: t₀=11.453547, UB=21.065299, gap=4.56e-01, x=[0, 0, 0, 0, 0, 0, 0, 0, 0, 0, 1, 0, 0, 0, 0, 0, 0, 0, 1, 0, 0, 0, 0, 0, 0, 0, 0, 0, 0, 0] (0.000s)
  Sub: Z₀=21.690585 [TIME_LIMIT], α=[0.000,0.000,0.000,0.000,0.000,0.000,0.000,0.617,0.000,0.000,11.506,0.000,0.000,0.000,0.000,0.000,0.000,0.000,12.663,0.847,0.000,0.000,0.000,0.000,0.000,0.000,0.000,0.000,0.000,0.000]
  Iter 6: LB=11.453547  UB=21.065299  gap=4.56e-01
  Cut: intercept=-6.550825, π_x_range=[-109.0000, 17.1353]
  Mini-Benders[1] (mw): LB=11.713603, Z₀(α*)=1.625835, intercept=-4.844856
  Mini-Benders[2] (mw): LB=11.713603, Z₀(α*)=1.625835, intercept=-4.844856
  Mini-Benders[3] (mw): LB=11.713603, Z₀(α*)=1.625835, intercept=-4.844856
  Mini-Benders[4]: LB stagnated, break
  α-step: Z₀=23.324431, α=[0.000,0.000,0.000,0.000,0.494,0.000,0.000,6.004,0.000,0.000,0.000,0.000,0.000,0.000,5.355,0.000,0.000,0.000,10.820,0.000,0.000,0.000,2.960,0.000,0.000,0.000,0.000,0.000,0.000,0.000]
  Alt-Benders[1] (mw): LB=12.174469, Z₀(α*)=19.754714, intercept=6.793295
  Alt-Benders[2] (mw): LB=12.844737, Z₀(α*)=5.633014, intercept=20.236620
  Alt-Benders[3] (mw): LB=12.844737, Z₀(α*)=5.633014, intercept=20.236620
  Alt-Benders[4] (mw): LB=12.844737, Z₀(α*)=5.633014, intercept=20.236620
  Alt-Benders[5]: LB stagnated, break
  OMP re-solve: 0.000s

=== True-DRO Benders iter 7 ===
  OMP: t₀=12.844737, UB=21.065299, gap=3.90e-01, x=[0, 0, 0, 0, 0, 0, 0, 1, 0, 0, 0, 0, 0, 0, 0, 0, 0, 1, 0, 0, 0, 0, 0, 0, 0, 0, 0, 0, 0, 0] (0.000s)
  Sub: Z₀=25.316066 [LOCAL], α=[0.000,0.000,0.000,0.000,0.321,0.000,0.000,13.470,0.000,0.000,0.000,0.000,0.000,0.000,4.518,0.000,0.000,0.000,0.000,7.325,0.000,0.000,0.000,0.000,0.000,0.000,0.000,0.000,0.000,0.000]
  Iter 7: LB=12.844737  UB=21.065299  gap=3.90e-01
  Cut: intercept=-570.347251, π_x_range=[-421.6802, 298.2578]
  Mini-Benders[1] (mw): LB=13.096654, Z₀(α*)=-3.882633, intercept=-6.276866
  Mini-Benders[2] (mw): LB=13.096654, Z₀(α*)=-3.882633, intercept=-6.276866
  Mini-Benders[3] (mw): LB=13.096654, Z₀(α*)=-3.882633, intercept=-6.276866
  Mini-Benders[4]: LB stagnated, break
  α-step: Z₀=17.798640, α=[0.000,0.000,0.000,0.000,1.483,0.000,0.000,5.456,0.000,0.000,0.613,0.000,0.000,0.000,11.428,0.000,0.000,0.000,6.126,0.527,0.000,0.000,0.000,0.000,0.000,0.000,0.000,0.000,0.000,0.000]
  Alt-Benders[1] (mw): LB=13.242217, Z₀(α*)=5.889260, intercept=20.530616
  Alt-Benders[2] (mw): LB=13.242217, Z₀(α*)=5.889260, intercept=20.530616
  Alt-Benders[3] (mw): LB=13.242217, Z₀(α*)=5.889260, intercept=20.530616
  Alt-Benders[4]: LB stagnated, break
  OMP re-solve: 0.000s

=== True-DRO Benders iter 8 ===
  OMP: t₀=13.242217, UB=21.065299, gap=3.71e-01, x=[0, 0, 0, 0, 0, 0, 0, 1, 0, 0, 1, 0, 0, 0, 0, 0, 0, 0, 0, 0, 0, 0, 0, 0, 0, 0, 0, 0, 0, 0] (0.000s)
  Sub: Z₀=22.966023 [LOCAL], α=[0.000,0.000,0.000,0.000,0.000,0.000,0.000,16.483,0.000,0.000,2.314,0.000,0.000,0.000,2.568,0.000,0.000,0.000,1.578,2.691,0.000,0.000,0.000,0.000,0.000,0.000,0.000,0.000,0.000,0.000]
  Iter 8: LB=13.242217  UB=21.065299  gap=3.71e-01
  Cut: intercept=-570.943140, π_x_range=[-424.4453, 297.6480]
  Mini-Benders[1] (mw): LB=13.522340, Z₀(α*)=-5.316624, intercept=10.352956
  Mini-Benders[2] (mw): LB=13.522340, Z₀(α*)=-5.316624, intercept=10.352956
  Mini-Benders[3] (mw): LB=13.522340, Z₀(α*)=-5.316624, intercept=10.352956
  Mini-Benders[4]: LB stagnated, break
  α-step: Z₀=15.918575, α=[0.000,0.000,0.000,0.000,5.536,0.000,0.000,6.530,0.000,0.000,0.000,0.000,0.000,0.000,7.668,0.000,0.000,0.000,5.899,0.000,0.000,0.000,0.000,0.000,0.000,0.000,0.000,0.000,0.000,0.000]
  Alt-Benders[1] (mw): LB=13.673094, Z₀(α*)=18.605052, intercept=20.059361
  Alt-Benders[2] (mw): LB=14.090364, Z₀(α*)=7.288155, intercept=22.389019
  Alt-Benders[3] (mw): LB=14.090364, Z₀(α*)=7.288155, intercept=22.389019
  Alt-Benders[4] (mw): LB=14.090364, Z₀(α*)=7.288155, intercept=22.389019
  Alt-Benders[5]: LB stagnated, break
  OMP re-solve: 0.001s

=== True-DRO Benders iter 9 ===
  OMP: t₀=14.090364, UB=21.065299, gap=3.31e-01, x=[0, 0, 0, 0, 0, 0, 0, 1, 0, 0, 0, 0, 0, 0, 1, 0, 0, 0, 0, 0, 0, 0, 0, 0, 0, 0, 0, 0, 0, 0] (0.000s)
  Sub: Z₀=23.489381, α=[0.000,0.000,0.000,0.000,2.964,0.000,0.000,14.944,0.000,0.000,0.000,0.000,0.000,0.000,3.945,0.000,0.000,0.000,0.000,3.781,0.000,0.000,0.000,0.000,0.000,0.000,0.000,0.000,0.000,0.000]
  Iter 9: LB=14.090364  UB=21.065299  gap=3.31e-01
  Cut: intercept=10.494507, π_x_range=[-52.7567, 10.7095]
  Sherali-Cut: intercept=12.453524, π_x_range=[-50.0000, 10.7095]
  Mini-Benders[1] (mw): LB=14.324086, Z₀(α*)=18.603844, intercept=19.935632
  Mini-Benders[2] (mw): LB=14.436950, Z₀(α*)=7.219373, intercept=7.556966
  Mini-Benders[3] (mw): LB=14.436950, Z₀(α*)=7.219373, intercept=7.556966
  Mini-Benders[4] (mw): LB=14.436950, Z₀(α*)=7.219373, intercept=7.556966
  Mini-Benders[5]: LB stagnated, break
  α-step: Z₀=28.110943, α=[0.000,0.000,0.000,0.000,0.000,0.000,0.000,2.663,0.000,0.000,1.578,0.000,0.000,0.000,11.058,0.000,0.000,0.454,1.896,7.985,0.000,0.000,0.000,0.000,0.000,0.000,0.000,0.000,0.000,0.000]
  Alt-Benders[1] (mw): LB=14.694020, Z₀(α*)=4.672847, intercept=18.990654
  Alt-Benders[2] (mw): LB=14.694020, Z₀(α*)=4.672847, intercept=18.990654
  Alt-Benders[3] (mw): LB=14.694020, Z₀(α*)=4.672847, intercept=18.990654
  Alt-Benders[4]: LB stagnated, break
  OMP re-solve: 0.000s

=== True-DRO Benders iter 10 ===
  OMP: t₀=14.694020, UB=21.065299, gap=3.02e-01, x=[0, 0, 0, 0, 0, 0, 0, 0, 0, 0, 0, 0, 0, 1, 0, 0, 0, 0, 0, 0, 0, 0, 1, 0, 0, 0, 0, 0, 0, 0] (0.000s)
  Sub: Z₀=28.174637 [LOCAL], α=[0.000,0.000,0.000,0.000,0.000,0.000,0.000,9.966,0.000,0.000,1.732,0.000,0.000,0.000,9.183,0.000,0.000,0.000,0.000,0.000,0.000,0.000,4.752,0.000,0.000,0.000,0.000,0.000,0.000,0.000]
  Iter 10: LB=14.694020  UB=21.065299  gap=3.02e-01
  Cut: intercept=-560.151879, π_x_range=[-422.0602, 296.3289]
  Mini-Benders[1] (mw): LB=14.694020, Z₀(α*)=18.894919, intercept=24.363256
  Mini-Benders[2] (mw): LB=14.880844, Z₀(α*)=-0.851829, intercept=19.661535
  Mini-Benders[3] (mw): LB=14.880844, Z₀(α*)=-0.851829, intercept=19.661535
  Mini-Benders[4] (mw): LB=14.880844, Z₀(α*)=-0.851829, intercept=19.661535
  Mini-Benders[5]: LB stagnated, break
  α-step: Z₀=23.197257, α=[0.000,0.000,0.000,0.000,0.000,0.000,0.000,7.390,0.000,0.000,1.651,0.000,0.000,0.000,7.350,0.000,0.000,0.000,9.243,0.000,0.000,0.000,0.000,0.000,0.000,0.000,0.000,0.000,0.000,0.000]
  Alt-Benders[1] (mw): LB=14.930696, Z₀(α*)=9.458332, intercept=8.154003
  Alt-Benders[2] (mw): LB=14.930697, Z₀(α*)=9.458332, intercept=8.154003
  Alt-Benders[3] (mw): LB=14.930697, Z₀(α*)=9.458332, intercept=8.154003
  Alt-Benders[4]: LB stagnated, break
  OMP re-solve: 0.000s

=== True-DRO Benders iter 11 ===
  OMP: t₀=14.930697, UB=21.065299, gap=2.91e-01, x=[0, 0, 0, 0, 1, 0, 0, 1, 0, 0, 0, 0, 0, 0, 0, 0, 0, 0, 0, 0, 0, 0, 0, 0, 0, 0, 0, 0, 0, 0] (0.000s)
  Sub: Z₀=18.251791 [LOCAL], α=[0.000,0.000,0.000,0.000,6.152,0.000,0.000,9.787,0.000,0.000,0.000,0.000,0.000,0.000,6.933,0.000,0.000,0.000,0.000,2.762,0.000,0.000,0.000,0.000,0.000,0.000,0.000,0.000,0.000,0.000]
  Iter 11: LB=14.930697  UB=21.065299  gap=2.91e-01
  Cut: intercept=-575.486221, π_x_range=[-420.1346, 298.2750]
  Mini-Benders[1] (mw): LB=15.663941, Z₀(α*)=16.189203, intercept=10.262424
  Mini-Benders[2] (mw): LB=15.668558, Z₀(α*)=8.159882, intercept=21.435962
  Mini-Benders[3] (mw): LB=15.668558, Z₀(α*)=8.159882, intercept=21.435962
  Mini-Benders[4] (mw): LB=15.668558, Z₀(α*)=8.159882, intercept=21.435962
  Mini-Benders[5]: LB stagnated, break
  α-step: Z₀=26.472435, α=[0.000,0.000,0.000,0.000,0.000,0.000,0.000,7.540,0.000,0.000,2.173,0.000,0.000,0.000,10.575,0.000,0.000,0.000,4.717,0.629,0.000,0.000,0.000,0.000,0.000,0.000,0.000,0.000,0.000,0.000]
  Alt-Benders[1] (mw): LB=15.723047, Z₀(α*)=14.751191, intercept=17.846763
  Alt-Benders[2] (mw): LB=15.723047, Z₀(α*)=14.751191, intercept=17.846763
  Alt-Benders[3] (mw): LB=15.723047, Z₀(α*)=14.751191, intercept=17.846763
  Alt-Benders[4]: LB stagnated, break
  OMP re-solve: 0.000s

=== True-DRO Benders iter 12 ===
  OMP: t₀=15.723047, UB=21.065299, gap=2.54e-01, x=[0, 0, 0, 0, 1, 0, 0, 0, 0, 0, 0, 0, 0, 0, 0, 0, 0, 0, 0, 1, 0, 0, 0, 0, 0, 0, 0, 0, 0, 0] (0.000s)
  Sub: Z₀=22.236949, α=[0.000,0.000,0.000,0.000,15.768,0.000,0.000,5.031,0.000,0.000,0.000,0.000,0.000,0.000,2.029,0.000,0.000,0.000,0.000,2.806,0.000,0.000,0.000,0.000,0.000,0.000,0.000,0.000,0.000,0.000]
  Iter 12: LB=15.723047  UB=21.065299  gap=2.54e-01
  Cut: intercept=2.441020, π_x_range=[-60.6687, 15.6881]
  Sherali-Cut: intercept=9.153617, π_x_range=[-40.9429, 12.3044]
  Mini-Benders[1] (mw): LB=17.046035, Z₀(α*)=-0.105808, intercept=9.951979
  Mini-Benders[2] (mw): LB=17.046035, Z₀(α*)=-0.105808, intercept=9.951980
  Mini-Benders[3] (mw): LB=17.046035, Z₀(α*)=-0.105808, intercept=9.951979
  Mini-Benders[4]: LB stagnated, break
  α-step: Z₀=22.709391, α=[0.000,0.000,0.000,0.000,0.000,0.000,0.000,7.252,0.000,0.000,0.878,0.000,0.000,0.000,10.427,0.000,0.000,0.000,6.410,0.667,0.000,0.000,0.000,0.000,0.000,0.000,0.000,0.000,0.000,0.000]
  Alt-Benders[1] (mw): LB=17.528498, Z₀(α*)=18.381302, intercept=23.688762
  Alt-Benders[2] (mw): LB=17.798640, Z₀(α*)=14.679899, intercept=12.004685
  Alt-Benders[3] (mw): LB=17.798640, Z₀(α*)=14.679899, intercept=12.004685
  Alt-Benders[4] (mw): LB=17.798640, Z₀(α*)=14.679899, intercept=12.004685
  Alt-Benders[5]: LB stagnated, break
  OMP re-solve: 0.000s

=== True-DRO Benders iter 13 ===
  OMP: t₀=17.798640, UB=21.065299, gap=1.55e-01, x=[0, 0, 0, 0, 1, 0, 0, 0, 0, 0, 0, 0, 0, 0, 0, 0, 0, 0, 1, 0, 0, 0, 0, 0, 0, 0, 0, 0, 0, 0] (0.000s)
  Sub: Z₀=20.099653 [LOCAL], α=[0.000,0.000,0.000,0.000,8.321,0.000,0.000,1.360,0.000,0.000,0.855,0.000,0.000,0.000,7.869,0.000,0.000,0.000,7.230,0.000,0.000,0.000,0.000,0.000,0.000,0.000,0.000,0.000,0.000,0.000]
  Iter 13: LB=17.798640  UB=21.065299  gap=1.55e-01
  Cut: intercept=-564.253182, π_x_range=[-421.2095, 294.1256]
  Mini-Benders[1] (mw): LB=17.864321, Z₀(α*)=8.362196, intercept=4.442727
  Mini-Benders[2] (mw): LB=17.864321, Z₀(α*)=8.362196, intercept=4.442727
  Mini-Benders[3] (mw): LB=17.864321, Z₀(α*)=8.362196, intercept=4.442727
  Mini-Benders[4]: LB stagnated, break
  α-step: Z₀=20.135555, α=[0.000,0.000,0.000,0.000,0.000,0.000,0.000,4.632,0.000,0.000,0.000,0.000,0.000,0.000,15.797,0.000,0.000,0.000,4.001,0.000,0.000,0.000,1.204,0.000,0.000,0.000,0.000,0.000,0.000,0.000]
  Alt-Benders[1] (mw): LB=18.093119, Z₀(α*)=20.129003, intercept=15.341277
  Alt-Benders[2] (mw): LB=18.213328, Z₀(α*)=10.522692, intercept=16.727287
  Alt-Benders[3] (mw): LB=18.213328, Z₀(α*)=10.522692, intercept=16.727287
  Alt-Benders[4] (mw): LB=18.213328, Z₀(α*)=10.522692, intercept=16.727287
  Alt-Benders[5]: LB stagnated, break
  OMP re-solve: 0.000s

=== True-DRO Benders iter 14 ===
  OMP: t₀=18.213328, UB=21.065299, gap=1.35e-01, x=[0, 0, 0, 0, 0, 0, 0, 0, 0, 0, 0, 0, 0, 0, 1, 0, 0, 0, 0, 1, 0, 0, 0, 0, 0, 0, 0, 0, 0, 0] (0.001s)
  Sub: Z₀=27.611824 [LOCAL], α=[0.000,0.000,0.000,0.000,1.712,0.000,0.000,7.026,0.000,0.000,0.000,0.000,0.000,0.000,9.908,0.000,0.000,0.000,0.000,6.987,0.000,0.000,0.000,0.000,0.000,0.000,0.000,0.000,0.000,0.000]
  Iter 14: LB=18.213328  UB=21.065299  gap=1.35e-01
  Cut: intercept=-580.663274, π_x_range=[-424.4927, 304.1734]
  Mini-Benders[1] (mw): LB=18.251791, Z₀(α*)=16.022400, intercept=7.879301
  Mini-Benders[2] (mw): LB=18.251791, Z₀(α*)=16.022400, intercept=7.879301
  Mini-Benders[3] (mw): LB=18.251791, Z₀(α*)=16.022400, intercept=7.879301
  Mini-Benders[4]: LB stagnated, break
  α-step: Z₀=18.065947, α=[0.000,0.000,0.000,0.000,0.170,0.000,0.000,12.279,0.000,0.000,0.267,0.000,0.000,0.000,12.646,0.000,0.000,0.000,0.272,0.000,0.000,0.000,0.000,0.000,0.000,0.000,0.000,0.000,0.000,0.000]
  Alt-Benders[1] (mw): LB=18.251791, Z₀(α*)=18.127072, intercept=7.961171
  Alt-Benders[2] (mw): LB=18.251791, Z₀(α*)=18.127072, intercept=7.961171
  Alt-Benders[3] (mw): LB=18.251791, Z₀(α*)=18.127072, intercept=7.961171
  Alt-Benders[4]: LB stagnated, break
  OMP re-solve: 0.000s

=== True-DRO Benders iter 15 ===
  OMP: t₀=18.251791, UB=21.065299, gap=1.34e-01, x=[0, 0, 0, 0, 1, 0, 0, 1, 0, 0, 0, 0, 0, 0, 0, 0, 0, 0, 0, 0, 0, 0, 0, 0, 0, 0, 0, 0, 0, 0] (0.000s)
  Sub: Z₀=18.396619 [TIME_LIMIT], α=[0.000,0.000,0.000,0.000,5.077,0.000,0.000,12.124,0.000,0.000,0.000,0.000,0.000,0.000,8.008,0.000,0.000,0.000,0.000,0.425,0.000,0.000,0.000,0.000,0.000,0.000,0.000,0.000,0.000,0.000]
  Iter 15: LB=18.251791  UB=18.488953  gap=1.28e-02
  Cut: intercept=-3.578835, π_x_range=[-51.8196, 14.2377]
  Mini-Benders[1] (mw): LB=18.327170, Z₀(α*)=21.246356, intercept=23.856698
  Mini-Benders[2] (mw): LB=18.381300, Z₀(α*)=24.181946, intercept=16.963980
  Mini-Benders[3] (mw): LB=18.396619, Z₀(α*)=18.396614, intercept=7.601729
  Mini-Benders[4] (mw): LB=18.396612, Z₀(α*)=18.396614, intercept=7.601729
  Mini-Benders[5] (mw): LB=18.396612, Z₀(α*)=18.396614, intercept=7.601729
  α-step: Z₀=18.396614, α=[0.000,0.000,0.000,0.000,0.000,0.000,0.000,12.548,0.000,0.000,0.000,0.000,0.000,0.000,13.085,0.000,0.000,0.000,0.000,0.000,0.000,0.000,0.000,0.000,0.000,0.000,0.000,0.000,0.000,0.000]
  Alt-Benders[1] (mw): LB=18.396614, Z₀(α*)=18.396614, intercept=7.486098
  Alt-Benders[2] (mw): LB=18.396612, Z₀(α*)=18.396614, intercept=7.486098
  Alt-Benders[3] (mw): LB=18.396612, Z₀(α*)=18.396614, intercept=7.486098
  Alt-Benders[4]: LB stagnated, break
  OMP re-solve: 0.001s

=== True-DRO Benders iter 16 ===
  OMP: t₀=18.396612, UB=18.488953, gap=4.99e-03, x=[0, 0, 0, 0, 1, 0, 0, 1, 0, 0, 0, 0, 0, 0, 0, 0, 0, 0, 0, 0, 0, 0, 0, 0, 0, 0, 0, 0, 0, 0] (0.000s)
  Sub: Z₀=18.251791 [LOCAL], α=[0.000,0.000,0.000,0.000,6.152,0.000,0.000,9.787,0.000,0.000,0.000,0.000,0.000,0.000,6.933,0.000,0.000,0.000,0.000,2.762,0.000,0.000,0.000,0.000,0.000,0.000,0.000,0.000,0.000,0.000]
  Iter 16: LB=18.396612  UB=18.488953  gap=4.99e-03
  Cut: intercept=-575.486221, π_x_range=[-420.1346, 298.2750]
  Mini-Benders[1] (mw): LB=18.396612, Z₀(α*)=18.396614, intercept=7.601729
  Mini-Benders[2] (mw): LB=18.396612, Z₀(α*)=18.396614, intercept=7.601729
  Mini-Benders[3]: LB stagnated, break
  α-step: Z₀=18.396614, α=[0.000,0.000,0.000,0.000,0.000,0.000,0.000,12.548,0.000,0.000,0.000,0.000,0.000,0.000,13.085,0.000,0.000,0.000,0.000,0.000,0.000,0.000,0.000,0.000,0.000,0.000,0.000,0.000,0.000,0.000]
  Alt-Benders[1] (mw): LB=18.396612, Z₀(α*)=18.396614, intercept=7.486098
  Alt-Benders[2] (mw): LB=18.396612, Z₀(α*)=18.396614, intercept=7.486098
  Alt-Benders[3]: LB stagnated, break
  OMP re-solve: 0.000s

=== True-DRO Benders iter 17 ===
  OMP: t₀=18.396612, UB=18.488953, gap=4.99e-03, x=[0, 0, 0, 0, 1, 0, 0, 1, 0, 0, 0, 0, 0, 0, 0, 0, 0, 0, 0, 0, 0, 0, 0, 0, 0, 0, 0, 0, 0, 0] (0.000s)
  Sub: Z₀=18.251791 [LOCAL], α=[0.000,0.000,0.000,0.000,6.152,0.000,0.000,9.787,0.000,0.000,0.000,0.000,0.000,0.000,6.933,0.000,0.000,0.000,0.000,2.762,0.000,0.000,0.000,0.000,0.000,0.000,0.000,0.000,0.000,0.000]
  Iter 17: LB=18.396612  UB=18.488953  gap=4.99e-03
  Cut: intercept=-575.486221, π_x_range=[-420.1346, 298.2750]
  Mini-Benders[1] (mw): LB=18.396612, Z₀(α*)=18.396614, intercept=7.601729
  Mini-Benders[2] (mw): LB=18.396612, Z₀(α*)=18.396614, intercept=7.601729
  Mini-Benders[3]: LB stagnated, break
  α-step: Z₀=18.396614, α=[0.000,0.000,0.000,0.000,0.000,0.000,0.000,12.548,0.000,0.000,0.000,0.000,0.000,0.000,13.085,0.000,0.000,0.000,0.000,0.000,0.000,0.000,0.000,0.000,0.000,0.000,0.000,0.000,0.000,0.000]
  Alt-Benders[1] (mw): LB=18.396612, Z₀(α*)=18.396614, intercept=7.486098
  Alt-Benders[2] (mw): LB=18.396612, Z₀(α*)=18.396614, intercept=7.486098
  Alt-Benders[3]: LB stagnated, break
  OMP re-solve: 0.000s

=== True-DRO Benders iter 18 ===
  OMP: t₀=18.396612, UB=18.488953, gap=4.99e-03, x=[0, 0, 0, 0, 1, 0, 0, 1, 0, 0, 0, 0, 0, 0, 0, 0, 0, 0, 0, 0, 0, 0, 0, 0, 0, 0, 0, 0, 0, 0] (0.000s)
  Sub: Z₀=18.396618 [TIME_LIMIT], α=[0.000,0.000,0.000,0.000,3.209,0.000,0.000,12.496,0.000,0.000,0.000,0.000,0.000,0.000,9.876,0.000,0.000,0.000,0.000,0.053,0.000,0.000,0.000,0.000,0.000,0.000,0.000,0.000,0.000,0.000]
  Iter 18: LB=18.396612  UB=18.488953  gap=4.99e-03
  Cut: intercept=-5.795386, π_x_range=[-50.1035, 13.7934]
  Mini-Benders[1] (mw): LB=18.396612, Z₀(α*)=18.396614, intercept=7.532350
  Mini-Benders[2] (mw): LB=18.396612, Z₀(α*)=18.396614, intercept=7.532350
  Mini-Benders[3]: LB stagnated, break
  α-step: Z₀=18.396614, α=[0.000,0.000,0.000,0.000,0.000,0.000,0.000,12.548,0.000,0.000,0.000,0.000,0.000,0.000,13.085,0.000,0.000,0.000,0.000,0.000,0.000,0.000,0.000,0.000,0.000,0.000,0.000,0.000,0.000,0.000]
  Alt-Benders[1] (mw): LB=18.396612, Z₀(α*)=18.396614, intercept=7.486098
  Alt-Benders[2] (mw): LB=18.396612, Z₀(α*)=18.396614, intercept=7.486098
  Alt-Benders[3]: LB stagnated, break
  OMP re-solve: 0.000s

=== True-DRO Benders iter 19 ===
  OMP: t₀=18.396612, UB=18.488953, gap=4.99e-03, x=[0, 0, 0, 0, 1, 0, 0, 1, 0, 0, 0, 0, 0, 0, 0, 0, 0, 0, 0, 0, 0, 0, 0, 0, 0, 0, 0, 0, 0, 0] (0.000s)
  Sub: Z₀=18.251791 [LOCAL], α=[0.000,0.000,0.000,0.000,6.152,0.000,0.000,9.787,0.000,0.000,0.000,0.000,0.000,0.000,6.933,0.000,0.000,0.000,0.000,2.762,0.000,0.000,0.000,0.000,0.000,0.000,0.000,0.000,0.000,0.000]
  Iter 19: LB=18.396612  UB=18.488953  gap=4.99e-03
  Cut: intercept=-575.486221, π_x_range=[-420.1346, 298.2750]
  Mini-Benders[1] (mw): LB=18.396612, Z₀(α*)=18.396614, intercept=7.601729
  Mini-Benders[2] (mw): LB=18.396612, Z₀(α*)=18.396614, intercept=7.601729
  Mini-Benders[3]: LB stagnated, break
  α-step: Z₀=18.396614, α=[0.000,0.000,0.000,0.000,0.000,0.000,0.000,12.548,0.000,0.000,0.000,0.000,0.000,0.000,13.085,0.000,0.000,0.000,0.000,0.000,0.000,0.000,0.000,0.000,0.000,0.000,0.000,0.000,0.000,0.000]
  Alt-Benders[1] (mw): LB=18.396612, Z₀(α*)=18.396614, intercept=7.486098
  Alt-Benders[2] (mw): LB=18.396612, Z₀(α*)=18.396614, intercept=7.486098
  Alt-Benders[3]: LB stagnated, break
  OMP re-solve: 0.000s

=== True-DRO Benders iter 20 ===
  OMP: t₀=18.396612, UB=18.488953, gap=4.99e-03, x=[0, 0, 0, 0, 1, 0, 0, 1, 0, 0, 0, 0, 0, 0, 0, 0, 0, 0, 0, 0, 0, 0, 0, 0, 0, 0, 0, 0, 0, 0] (0.000s)
  Sub: Z₀=18.251791 [LOCAL], α=[0.000,0.000,0.000,0.000,6.152,0.000,0.000,9.787,0.000,0.000,0.000,0.000,0.000,0.000,6.933,0.000,0.000,0.000,0.000,2.762,0.000,0.000,0.000,0.000,0.000,0.000,0.000,0.000,0.000,0.000]
  Iter 20: LB=18.396612  UB=18.488953  gap=4.99e-03
  Cut: intercept=-575.486221, π_x_range=[-420.1346, 298.2750]
  Mini-Benders[1] (mw): LB=18.396612, Z₀(α*)=18.396614, intercept=7.601729
  Mini-Benders[2] (mw): LB=18.396612, Z₀(α*)=18.396614, intercept=7.601729
  Mini-Benders[3]: LB stagnated, break
  α-step: Z₀=18.396614, α=[0.000,0.000,0.000,0.000,0.000,0.000,0.000,12.548,0.000,0.000,0.000,0.000,0.000,0.000,13.085,0.000,0.000,0.000,0.000,0.000,0.000,0.000,0.000,0.000,0.000,0.000,0.000,0.000,0.000,0.000]
  Alt-Benders[1] (mw): LB=18.396612, Z₀(α*)=18.396614, intercept=7.486098
  Alt-Benders[2] (mw): LB=18.396612, Z₀(α*)=18.396614, intercept=7.486098
  Alt-Benders[3]: LB stagnated, break
  OMP re-solve: 0.000s

=== True-DRO Benders iter 21 ===
  OMP: t₀=18.396612, UB=18.488953, gap=4.99e-03, x=[0, 0, 0, 0, 1, 0, 0, 1, 0, 0, 0, 0, 0, 0, 0, 0, 0, 0, 0, 0, 0, 0, 0, 0, 0, 0, 0, 0, 0, 0] (0.001s)
  → Boost: time limit off + MIPGap=0.5% (same x + prev TIME_LIMIT)
  Sub: Z₀=18.396614, α=[0.000,0.000,0.000,0.000,0.000,0.000,0.000,12.548,0.000,0.000,0.000,0.000,0.000,0.000,13.085,0.000,0.000,0.000,0.000,0.000,0.000,0.000,0.000,0.000,0.000,0.000,0.000,0.000,0.000,0.000]
  Iter 21: LB=18.396612  UB=18.396614  gap=1.09e-07
True-DRO Benders converged at iter 21 (gap=1.09e-07)
  Wall time: 222.00 sec
  OMP  time: mean=0.060s, median=0.081s, max=0.110s
  Sub  time (exact): mean=11.046s, median=8.464s, q90=17.754s, max=20.077s (n=3/21)

----------------------------------------
True-DRO: status=Optimal, Z₀=18.396614, iters=21, time=222.00s
  LB=18.396612, UB=18.396614, gap=1.09e-07
  x* = [0, 0, 0, 0, 0, 0, 0, 0, 0, 0, 0, 0, 0, 0, 0, 0, 0, 0, 0, 0, 0, 0, 0, 0, 0, 0, 0, 0, 0, 0]
============================================================
Primal Recovery: x* → α* → (h*, λ*, ψ⁰*)
============================================================
  x* = [0, 0, 0, 0, 0, 0, 0, 0, 0, 0, 0, 0, 0, 0, 0, 0, 0, 0, 0, 0, 0, 0, 0, 0, 0, 0, 0, 0, 0, 0]
  α* = [0.0000, 0.0000, 0.0000, 0.0000, 0.0000, 0.0000, 0.0000, 0.0000, 0.0000, 0.0000, 0.0000, 0.0000, 0.0000, 0.0000, 0.0000, 0.0000, 0.0000, 0.0000, 0.0000, 0.0000, 0.0000, 0.0000, 0.0000, 0.0000, 0.0000, 0.0000, 0.0000, 0.0000, 0.0000, 0.0000]

  Piece-F obj = -17.115602
  λ*   = 2.000000
  Σh*  = 51.266600  (budget: λw = 51.266600)

  h* (nonzero arcs):
    arc  8: h=17.115602
    arc 15: h=17.035396
    arc 19: h=17.115602
  ψ⁰* (nonzero arcs):

  Per-scenario sink flow ỹ_ts:
    s=1: ỹ_ts=30.884976
    s=2: ỹ_ts=25.341293
    s=3: ỹ_ts=31.694571
    s=4: ỹ_ts=62.524744
    s=5: ỹ_ts=19.027550
    s=6: ỹ_ts=30.629513
    s=7: ỹ_ts=21.187726
    s=8: ỹ_ts=36.949372
    s=9: ỹ_ts=43.266813
    s=10: ỹ_ts=37.716291
    s=11: ỹ_ts=24.350036
    s=12: ỹ_ts=51.141456
    s=13: ỹ_ts=58.284202
    s=14: ỹ_ts=21.372475
    s=15: ỹ_ts=23.936080
    s=16: ỹ_ts=44.729617
    s=17: ỹ_ts=25.717970
    s=18: ỹ_ts=27.183863
    s=19: ỹ_ts=34.314484
    s=20: ỹ_ts=28.494559

  Z₀(Benders) = 18.396614
  Piece-F(recovered) = -17.115602

Finished: 2026-04-18T03:03:57.138
